135 300 148 101 31 48 112 50 168 101 99 113 191 6 56 183 49 38 107 66 144 143 42 65 105 195 131 105 116 47 43 21 81 190 122 63 38 33 112 157 85 162 70 27 167 77 9 167 115 115 33 58 57 26 75 113 20 157 169 135 3 11 156 35 1 29 49 190 13 112 98 49 73 167 75 191 44 83 158 110 149 142 119 158 167 193 22 139 150 191 73 104 153 180 139 153 160 187 94 124 51 192 172 123 110 46 114 105 128 23 14 29 164 85 186 130 77 7 68 178 149 93 82 102 24 20 6 184 158 52 107 8 43 31 83 104 76 